1459.91
0 10 66 19 35 34 46 26 17 1 5 0
0 13 15 20 21 33 16 23 55 39 72 11 7 0
0 31 25 32 44 3 24 49 22 27 75 0
0 38 58 18 43 42 41 36 37 74 30 45 0
0 71 60 47 48 29 57 54 8 52 53 12 51 0
0 28 61 64 62 2 68 9 59 67 0
0 69 70 14 65 40 50 56 63 73 6 4 0
